p cnf 12 21
12 -11 9 0
-12 -6 -3 0
-12 6 2 0
12 -5 -2 0
11 9 -4 0
-11 9 -1 0
11 -8 -6 0
11 -8 5 0
-11 -7 5 0
-11 5 3 0
10 -8 6 0
-10 -8 5 0
10 7 6 0
-10 -6 4 0
-9 -8 -6 0
-9 5 4 0
-8 7 3 0
-8 -6 -5 0
8 -6 2 0
8 -6 1 0
8 5 -2 0
